c nombre: 14
c densidad: 0.3
p edges 50 354
e 1 2
e 1 8
e 1 9
e 1 14
e 1 15
e 1 18
e 1 22
e 1 25
e 1 28
e 1 29
e 1 31
e 1 38
e 1 41
e 1 43
e 1 45
e 2 3
e 2 6
e 2 12
e 2 14
e 2 15
e 2 16
e 2 21
e 2 23
e 2 24
e 2 27
e 2 31
e 2 32
e 2 36
e 2 39
e 2 41
e 2 42
e 2 45
e 3 4
e 3 9
e 3 21
e 3 25
e 3 30
e 3 32
e 3 34
e 3 36
e 3 44
e 3 50
e 4 6
e 4 7
e 4 8
e 4 10
e 4 15
e 4 16
e 4 22
e 4 26
e 4 29
e 4 32
e 4 33
e 4 35
e 4 43
e 4 49
e 4 50
e 5 6
e 5 11
e 5 15
e 5 18
e 5 19
e 5 20
e 5 26
e 5 30
e 5 31
e 5 44
e 5 45
e 5 47
e 5 49
e 6 12
e 6 14
e 6 17
e 6 22
e 6 24
e 6 32
e 6 33
e 6 34
e 6 36
e 6 43
e 6 47
e 7 14
e 7 17
e 7 19
e 7 20
e 7 21
e 7 22
e 7 23
e 7 24
e 7 32
e 7 38
e 7 42
e 7 45
e 7 46
e 7 47
e 7 48
e 8 13
e 8 16
e 8 18
e 8 21
e 8 22
e 8 26
e 8 28
e 8 29
e 8 39
e 8 43
e 8 45
e 8 48
e 8 50
e 9 10
e 9 17
e 9 19
e 9 21
e 9 23
e 9 29
e 9 33
e 9 35
e 9 37
e 9 42
e 9 44
e 9 46
e 9 47
e 10 16
e 10 25
e 10 29
e 10 33
e 10 42
e 10 43
e 10 48
e 10 49
e 10 50
e 11 18
e 11 19
e 11 20
e 11 21
e 11 29
e 11 31
e 11 33
e 11 40
e 11 46
e 11 49
e 12 15
e 12 18
e 12 19
e 12 20
e 12 22
e 12 24
e 12 28
e 12 43
e 13 20
e 13 21
e 13 27
e 13 28
e 13 33
e 13 35
e 13 36
e 13 38
e 13 43
e 13 44
e 13 45
e 13 49
e 13 50
e 14 16
e 14 22
e 14 23
e 14 31
e 14 35
e 14 38
e 14 40
e 14 42
e 14 45
e 14 47
e 15 31
e 15 34
e 15 35
e 15 38
e 15 39
e 15 48
e 15 50
e 16 21
e 16 22
e 16 25
e 16 27
e 16 28
e 16 31
e 16 32
e 16 34
e 16 44
e 16 46
e 16 47
e 17 18
e 17 20
e 17 23
e 17 26
e 17 35
e 17 39
e 17 41
e 17 42
e 17 46
e 17 47
e 17 49
e 17 50
e 18 24
e 18 29
e 18 42
e 18 43
e 18 44
e 18 45
e 18 50
e 19 25
e 19 28
e 19 30
e 19 33
e 19 37
e 19 39
e 20 23
e 20 24
e 20 26
e 20 30
e 20 38
e 20 39
e 20 43
e 20 45
e 20 49
e 20 50
e 21 22
e 21 25
e 21 26
e 21 33
e 21 36
e 21 37
e 21 38
e 21 41
e 21 42
e 21 43
e 21 45
e 21 46
e 22 23
e 22 26
e 22 29
e 22 30
e 22 31
e 22 32
e 22 46
e 22 47
e 22 50
e 23 31
e 23 37
e 23 47
e 23 49
e 24 29
e 24 34
e 24 35
e 24 38
e 24 39
e 24 41
e 24 42
e 24 43
e 24 45
e 24 49
e 24 50
e 25 30
e 25 31
e 25 38
e 26 29
e 26 32
e 26 33
e 26 42
e 26 46
e 26 47
e 26 50
e 27 31
e 27 34
e 27 36
e 27 37
e 27 38
e 27 39
e 27 40
e 27 41
e 27 44
e 28 33
e 28 36
e 28 37
e 28 50
e 29 32
e 29 34
e 29 37
e 29 38
e 29 39
e 29 41
e 29 43
e 29 45
e 29 46
e 29 47
e 29 49
e 30 33
e 30 34
e 30 37
e 30 40
e 30 41
e 30 43
e 30 44
e 30 49
e 31 33
e 31 36
e 31 39
e 31 44
e 31 45
e 31 46
e 31 47
e 31 48
e 32 35
e 32 36
e 32 38
e 32 42
e 32 46
e 32 47
e 33 45
e 34 46
e 34 47
e 35 36
e 35 38
e 35 41
e 35 46
e 35 49
e 36 37
e 36 44
e 36 45
e 36 46
e 36 49
e 37 42
e 37 43
e 37 45
e 37 47
e 37 49
e 38 47
e 38 48
e 39 41
e 39 44
e 40 42
e 40 44
e 41 42
e 41 46
e 42 43
e 43 45
e 43 46
e 44 47
e 44 48
e 45 46
e 46 49
e 46 50
e 47 50
e 48 49
e 48 50
